(set-info :smt-lib-version 2.6)
(set-info :category "crafted")
(set-logic QF_FFA)
(define-sort FF0 () (_ FiniteField 52435875175126190479447740508185965837690552500527637822603658699938581184513))
(declare-fun return_n0_alt () FF0)
(declare-fun mul_n12_alt () FF0)
(declare-fun mul_n17_alt () FF0)
(declare-fun c_n4_alt () FF0)
(declare-fun mul_n16_alt () FF0)
(declare-fun h_n5_alt () FF0)
(declare-fun mul_n15_alt () FF0)
(declare-fun g_n7_alt () FF0)
(declare-fun mul_n14_alt () FF0)
(declare-fun a_n8_alt () FF0)
(declare-fun mul_n13_alt () FF0)
(declare-fun mul_n9_alt () FF0)
(declare-fun b_n6_alt () FF0)
(declare-fun mul_n11_alt () FF0)
(declare-fun mul_n10_alt () FF0)
(declare-fun f_n1_alt () FF0)
(declare-fun d_n3_alt () FF0)
(declare-fun e_n2_alt () FF0)
(declare-fun return_n0 () FF0)
(declare-fun mul_n12 () FF0)
(declare-fun mul_n17 () FF0)
(declare-fun c_n4 () FF0)
(declare-fun mul_n16 () FF0)
(declare-fun h_n5 () FF0)
(declare-fun mul_n15 () FF0)
(declare-fun g_n7 () FF0)
(declare-fun mul_n14 () FF0)
(declare-fun a_n8 () FF0)
(declare-fun mul_n13 () FF0)
(declare-fun mul_n9 () FF0)
(declare-fun b_n6 () FF0)
(declare-fun mul_n11 () FF0)
(declare-fun mul_n10 () FF0)
(declare-fun f_n1 () FF0)
(declare-fun d_n3 () FF0)
(declare-fun e_n2 () FF0)
(assert 
  (let ((let0 return_n0_alt))
  (let ((let1 mul_n12_alt))
  (let ((let2 mul_n17_alt))
  (let ((let3 (ff.mul let2 let1)))
  (let ((let4 (= let3 let0)))
  (let ((let5 c_n4_alt))
  (let ((let6 mul_n16_alt))
  (let ((let7 (ff.mul let6 let5)))
  (let ((let8 (= let7 let2)))
  (let ((let9 h_n5_alt))
  (let ((let10 mul_n15_alt))
  (let ((let11 (ff.mul let10 let9)))
  (let ((let12 (= let11 let6)))
  (let ((let13 (as ff1 FF0)))
  (let ((let14 (as ff52435875175126190479447740508185965837690552500527637822603658699938581184512 FF0)))
  (let ((let15 g_n7_alt))
  (let ((let16 (ff.mul let15 let14)))
  (let ((let17 (ff.add let16 let13)))
  (let ((let18 mul_n14_alt))
  (let ((let19 (ff.mul let18 let17)))
  (let ((let20 (= let19 let10)))
  (let ((let21 a_n8_alt))
  (let ((let22 mul_n13_alt))
  (let ((let23 (ff.mul let22 let21)))
  (let ((let24 (= let23 let18)))
  (let ((let25 mul_n9_alt))
  (let ((let26 (ff.mul let25 let14)))
  (let ((let27 (ff.add let26 let13)))
  (let ((let28 b_n6_alt))
  (let ((let29 (ff.mul let28 let27)))
  (let ((let30 (= let29 let22)))
  (let ((let31 mul_n11_alt))
  (let ((let32 (ff.mul let9 let14)))
  (let ((let33 mul_n10_alt))
  (let ((let34 f_n1_alt))
  (let ((let35 (ff.add let34 let33 let32)))
  (let ((let36 d_n3_alt))
  (let ((let37 (ff.mul let36 let35)))
  (let ((let38 (= let37 let31)))
  (let ((let39 e_n2_alt))
  (let ((let40 (ff.mul let34 let14)))
  (let ((let41 (ff.add let40 let39)))
  (let ((let42 (ff.mul let5 let41)))
  (let ((let43 (= let42 let33)))
  (let ((let44 (ff.mul let36 let14)))
  (let ((let45 (ff.add let44 let13)))
  (let ((let46 (ff.mul let28 let14)))
  (let ((let47 (ff.add let46 let13)))
  (let ((let48 (ff.mul let47 let45)))
  (let ((let49 (= let48 let25)))
  (let ((let50 (and let49 let43 let38 let30 let24 let20 let12 let8 let4)))
  (let ((let51 return_n0))
  (let ((let52 mul_n12))
  (let ((let53 mul_n17))
  (let ((let54 (ff.mul let53 let52)))
  (let ((let55 (= let54 let51)))
  (let ((let56 c_n4))
  (let ((let57 mul_n16))
  (let ((let58 (ff.mul let57 let56)))
  (let ((let59 (= let58 let53)))
  (let ((let60 h_n5))
  (let ((let61 mul_n15))
  (let ((let62 (ff.mul let61 let60)))
  (let ((let63 (= let62 let57)))
  (let ((let64 g_n7))
  (let ((let65 (ff.mul let64 let14)))
  (let ((let66 (ff.add let65 let13)))
  (let ((let67 mul_n14))
  (let ((let68 (ff.mul let67 let66)))
  (let ((let69 (= let68 let61)))
  (let ((let70 a_n8))
  (let ((let71 mul_n13))
  (let ((let72 (ff.mul let71 let70)))
  (let ((let73 (= let72 let67)))
  (let ((let74 mul_n9))
  (let ((let75 (ff.mul let74 let14)))
  (let ((let76 (ff.add let75 let13)))
  (let ((let77 b_n6))
  (let ((let78 (ff.mul let77 let76)))
  (let ((let79 (= let78 let71)))
  (let ((let80 mul_n11))
  (let ((let81 (ff.mul let60 let14)))
  (let ((let82 mul_n10))
  (let ((let83 f_n1))
  (let ((let84 (ff.add let83 let82 let81)))
  (let ((let85 d_n3))
  (let ((let86 (ff.mul let85 let84)))
  (let ((let87 (= let86 let80)))
  (let ((let88 e_n2))
  (let ((let89 (ff.mul let83 let14)))
  (let ((let90 (ff.add let89 let88)))
  (let ((let91 (ff.mul let56 let90)))
  (let ((let92 (= let91 let82)))
  (let ((let93 (ff.mul let85 let14)))
  (let ((let94 (ff.add let93 let13)))
  (let ((let95 (ff.mul let77 let14)))
  (let ((let96 (ff.add let95 let13)))
  (let ((let97 (ff.mul let96 let94)))
  (let ((let98 (= let97 let74)))
  (let ((let99 (and let98 let92 let87 let79 let73 let69 let63 let59 let55)))
  (let ((let100 (= let51 let0)))
  (let ((let101 (not let100)))
  (let ((let102 (= let85 let36)))
  (let ((let103 (= let60 let9)))
  (let ((let104 (= let83 let34)))
  (let ((let105 (= let70 let21)))
  (let ((let106 (= let64 let15)))
  (let ((let107 (= let77 let28)))
  (let ((let108 (= let88 let39)))
  (let ((let109 (= let56 let5)))
  (let ((let110 (and let109 let108 let107 let106 let105 let104 let103 let102)))
  (let ((let111 (and let110 let101 let99 let50)))
  let111
))))))))))))))))))))))))))))))))))))))))))))))))))))))))))))))))))))))))))))))))))))))))))))))))))))))))))))))))
)
(check-sat)
